20 43
1 2 4
1 3 5
1 4 1
1 5 5
2 3 5
2 4 4
2 5 4
3 4 3
3 5 5
4 5 1
5 6 3
6 7 4
6 8 4
6 9 2
6 10 5
7 8 3
7 9 2
7 10 4
8 9 5
8 10 1
9 10 3
10 11 1
11 12 3
11 13 3
11 14 1
11 15 1
12 13 1
12 14 1
12 15 2
13 14 2
13 15 2
14 15 4
15 16 4
16 17 2
16 18 4
16 19 2
16 20 4
17 18 1
17 19 2
17 20 5
18 19 4
18 20 5
19 20 1
